g3 1 1 0	# problem unknown
 2 0 14 0 0 	# vars, constraints, objectives, ranges, eqns
 0 13 0 0 0 0	# nonlinear constrs, objs; ccons: lin, nonlin, nd, nzlb
 0 0	# network constraints: nonlinear, linear
 0 2 0 	# nonlinear vars in constraints, objectives, both
 0 0 0 1	# linear network variables; functions; arith, flags
 0 0 0 0 0 	# discrete variables: binary, integer, nonlinear (b,c,o)
 0 20 	# nonzeros in Jacobian, obj. gradient
 0 0	# max name lengths: constraints, variables
 0 0 0 0 0	# common exprs: b,c,o,c1,o1
O0 0
o0
o54
4
o43
v0
o2
n3.0
o43
v1
o2
n9.3575
o43
o0
o16
o44
o2
n-1.3411308896691094
v1
n1
o2
n10.717
o43
o0
o16
o44
o2
n-5.155380340014588
v1
n1
n-12.558347537
O1 0
o3
n1.0
v0
O2 0
o3
n-1.0
o5
v0
n2
O3 0
o0
o54
3
o3
n3.0
v1
o3
n12.549632300078692
o0
o44
o2
n1.3411308896691094
v1
n-1
o3
n55.250211103936344
o0
o44
o2
n5.155380340014588
v1
n-1
n8.7912297624
O4 0
o0
o3
n-3.0
o5
v1
n2
o16
o0
o3
o2
n16.830699531624727
o44
o2
n-1.3411308896691094
v1
o5
o0
o16
o44
o2
n-1.3411308896691094
v1
n1
n2
o3
o2
n284.83585210688915
o44
o2
n-5.155380340014588
v1
o5
o0
o16
o44
o2
n-5.155380340014588
v1
n1
n2
O5 0
o54
16
o2
o2
n0.03982797
o5
v0
n4
v1
o2
o2
n1.812227
v0
o5
v1
n0.223
o2
o2
n-2.537512
v0
o5
v1
n0.755
o2
o2
n-0.5333254
o5
v0
n2
o5
v1
n1.24
o2
o2
n0.1677031
o5
v0
n3
o5
v1
n0.44
o2
o2
o2
n-1.323801
v0
o5
v1
n2.0
o44
o16
o5
v0
n2
o2
o2
o2
n-0.6694654
o5
v0
n3
o5
v1
n2.2
o44
o16
o5
v0
n2
o2
o2
o2
n0.8072718
o5
v0
n2
o5
v1
n1.2
o44
o2
n-1
v0
o2
o2
o2
n-0.7740229
o5
v0
n2
o5
v1
n1.5
o44
o16
o5
v0
n2
o2
o2
o2
n-0.01843846
o5
v0
n7
o5
v1
n0.9
o44
o2
n-1
v0
o2
o2
o2
n1.407916
v0
o5
v1
n1.33
o44
o0
o16
o5
o0
v0
n-0.728
n2
o2
n-1.21
o5
o0
v1
n-0.943
n2
o2
o2
o2
n-0.4237082
v0
o5
v1
n1.75
o44
o0
o2
n-1.61
o5
o0
v0
n-0.87
n2
o2
n-1.37
o5
o0
v1
n-0.642
n2
o2
o2
o2
n-0.2270068
o5
v0
n3
o5
v1
n2.11
o44
o0
o2
n-1.24
o5
o0
v0
n-0.855
n2
o2
n-0.98
o5
o0
v1
n-0.59
n2
o2
o2
o2
n-0.805213
o5
v0
n3
v1
o44
o0
o2
n-9.34
o5
o0
v0
n-0.79
n2
o2
n-171.0
o5
o0
v1
n-1.2
n2
o2
o2
o2
n0.00994318
o5
v0
n2
o5
v1
n1.5
o44
o0
o2
n-5.78
o5
o0
v0
n-1.3
n2
o2
n-47.4
o5
o0
v1
n-1.33
n2
o2
o2
o2
n-0.008798793
v0
v1
o44
o0
o2
n-3.08
o5
o0
v0
n-0.71
n2
o2
n-15.4
o5
o0
v1
n-0.64
n2
O6 0
o54
16
o2
o2
n0.15931188
o5
v0
n3
v1
o2
n1.812227
o5
v1
n0.223
o2
n-2.537512
o5
v1
n0.755
o2
o2
n-1.0666508
v0
o5
v1
n1.24
o2
o2
n0.5031093
o5
v0
n2
o5
v1
n0.44
o2
o2
o2
n-1.323801
o44
o16
o5
v0
n2
o5
v1
n2.0
o0
o2
n-2
o5
v0
n2
n1
o2
o2
o2
o2
n-0.6694654
o44
o16
o5
v0
n2
o5
v0
n2
o5
v1
n2.2
o0
o2
n-2
o5
v0
n2
n3
o2
o2
o2
o2
n0.8072718
o44
o2
n-1
v0
v0
o5
v1
n1.2
o0
o2
n-1
v0
n2
o2
o2
o2
o2
n-0.7740229
o44
o16
o5
v0
n2
v0
o5
v1
n1.5
o0
o2
n-2
o5
v0
n2
n2
o2
o2
o2
o2
n-0.01843846
o44
o2
n-1
v0
o5
v0
n6
o5
v1
n0.9
o0
o2
n-1
v0
n7
o2
o2
o2
o2
n1.407916
v0
o5
v1
n1.33
o44
o0
o16
o5
o0
v0
n-0.728
n2
o2
n-1.21
o5
o0
v1
n-0.943
n2
o54
3
o2
n-2.0
v0
o3
n1
v0
n1.456
o2
o2
o2
o2
n-0.4237082
v0
o5
v1
n1.75
o44
o0
o2
n-1.61
o5
o0
v0
n-0.87
n2
o2
n-1.37
o5
o0
v1
n-0.642
n2
o54
3
o2
n-3.22
v0
o3
n1
v0
n2.8014
o2
o2
o2
o2
n-0.2270068
o5
v0
n3
o5
v1
n2.11
o44
o0
o2
n-1.24
o5
o0
v0
n-0.855
n2
o2
n-0.98
o5
o0
v1
n-0.59
n2
o54
3
o2
n-2.48
v0
o3
n3
v0
n2.1204
o2
o2
o2
o2
n-0.805213
o5
v0
n3
v1
o44
o0
o2
n-9.34
o5
o0
v0
n-0.79
n2
o2
n-171.0
o5
o0
v1
n-1.2
n2
o54
3
o2
n-18.68
v0
o3
n3
v0
n14.757200000000001
o2
o2
o2
o2
n0.00994318
o5
v0
n2
o5
v1
n1.5
o44
o0
o2
n-5.78
o5
o0
v0
n-1.3
n2
o2
n-47.4
o5
o0
v1
n-1.33
n2
o54
3
o2
n-11.56
v0
o3
n2
v0
n15.028
o2
o2
o2
o2
n-0.008798793
v0
v1
o44
o0
o2
n-3.08
o5
o0
v0
n-0.71
n2
o2
n-15.4
o5
o0
v1
n-0.64
n2
o54
3
o2
n-6.16
v0
o3
n1
v0
n4.3736
O7 0
o54
14
o2
o2
n0.47793564
o5
v0
n2
v1
o2
n-1.0666508
o5
v1
n1.24
o2
o2
n1.0062186
v0
o5
v1
n0.44
o2
o2
o2
o2
n-1.323801
o44
o16
o5
v0
n2
o5
v0
n-1
o5
v1
n2.0
o0
o2
o0
o2
n-2
o5
v0
n2
n1
o2
n-2
o5
v0
n2
o2
n-4
o5
v0
n2
o2
o2
o2
o2
n-0.6694654
o44
o16
o5
v0
n2
v0
o5
v1
n2.2
o0
o2
o0
o2
n-2
o5
v0
n2
n3
o0
o2
n-2
o5
v0
n2
n2
o2
n-4
o5
v0
n2
o2
o2
o2
n0.8072718
o44
o2
n-1
v0
o5
v1
n1.2
o0
o2
n-1
v0
o2
o0
o2
n-1
v0
n2
o0
o2
n-1
v0
n1
o2
o2
o2
n-0.7740229
o44
o16
o5
v0
n2
o5
v1
n1.5
o0
o2
o0
o2
n-2
o5
v0
n2
n2
o0
o2
n-2
o5
v0
n2
n1
o2
n-4
o5
v0
n2
o2
o2
o2
o2
n-0.01843846
o44
o2
n-1
v0
o5
v0
n5
o5
v1
n0.9
o0
o2
n-1
v0
o2
o0
o2
n-1
v0
n7
o0
o2
n-1
v0
n6
o2
o2
o2
n1.407916
o5
v1
n1.33
o44
o0
o16
o5
o0
v0
n-0.728
n2
o2
n-1.21
o5
o0
v1
n-0.943
n2
o54
3
o2
n-6.0
v0
o2
o2
n4.0
v0
o5
o0
v0
n-0.728
n2
n2.912
o2
o2
o2
n-0.4237082
o5
v1
n1.75
o44
o0
o2
n-1.61
o5
o0
v0
n-0.87
n2
o2
n-1.37
o5
o0
v1
n-0.642
n2
o54
3
o2
n-9.66
v0
o2
o2
n10.368400000000001
v0
o5
o0
v0
n-0.87
n2
n5.6028
o2
o2
o2
n-0.2270068
o5
v1
n2.11
o44
o0
o2
n-1.24
o5
o0
v0
n-0.855
n2
o2
n-0.98
o5
o0
v1
n-0.59
n2
o54
4
o2
n6
v0
o2
n-2.48
o5
v0
n3
o2
o2
n6.1504
o5
v0
n3
o5
o0
v0
n-0.855
n2
o16
o2
o2
n14.879999999999999
o5
v0
n2
o0
v0
n-0.855
o2
o2
o2
n-0.805213
v1
o44
o0
o2
n-9.34
o5
o0
v0
n-0.79
n2
o2
n-171.0
o5
o0
v1
n-1.2
n2
o54
4
o2
n6
v0
o2
n-18.68
o5
v0
n3
o2
o2
n348.94239999999996
o5
v0
n3
o5
o0
v0
n-0.79
n2
o16
o2
o2
n112.08
o5
v0
n2
o0
v0
n-0.79
o2
o2
o2
n0.00994318
o5
v1
n1.5
o44
o0
o2
n-5.78
o5
o0
v0
n-1.3
n2
o2
n-47.4
o5
o0
v1
n-1.33
n2
o54
4
o2
n-11.56
o5
v0
n2
o2
o2
n133.6336
o5
v0
n2
o5
o0
v0
n-1.3
n2
o16
o2
o2
n46.24
v0
o0
v0
n-1.3
n2.0
o2
o2
o2
n-0.008798793
v1
o44
o0
o2
n-3.08
o5
o0
v0
n-0.71
n2
o2
n-15.4
o5
o0
v1
n-0.64
n2
o54
3
o2
n-18.48
v0
o2
o2
n37.9456
v0
o5
o0
v0
n-0.71
n2
n8.7472
O8 0
o54
16
o2
n0.03982797
o5
v0
n4
o2
o2
n0.404126621
v0
o5
v1
n-0.777
o2
o2
n-1.91582156
v0
o5
v1
n-0.245
o2
o2
n-0.661323496
o5
v0
n2
o5
v1
n0.24
o2
o2
n0.073789364
o5
v0
n3
o5
v1
n-0.56
o2
o2
o2
n-2.647602
v0
v1
o44
o16
o5
v0
n2
o2
o2
o2
n-1.4728238800000002
o5
v0
n3
o5
v1
n1.2000000000000002
o44
o16
o5
v0
n2
o2
o2
o2
n0.9687261599999999
o5
v0
n2
o5
v1
n0.19999999999999996
o44
o2
n-1
v0
o2
o2
o2
n-1.16103435
o5
v0
n2
o5
v1
n0.5
o44
o16
o5
v0
n2
o2
o2
o2
n-0.016594614
o5
v0
n7
o5
v1
n-0.09999999999999998
o44
o2
n-1
v0
o2
o2
o2
o2
n1.407916
v0
o5
v1
n1.33
o44
o0
o16
o5
o0
v0
n-0.728
n2
o2
n-1.21
o5
o0
v1
n-0.943
n2
o54
3
o2
n-2.42
v1
o3
n1.33
v1
n2.28206
o2
o2
o2
o2
n-0.4237082
v0
o5
v1
n1.75
o44
o0
o2
n-1.61
o5
o0
v0
n-0.87
n2
o2
n-1.37
o5
o0
v1
n-0.642
n2
o54
3
o2
n-2.74
v1
o3
n1.75
v1
n1.7590800000000002
o2
o2
o2
o2
n-0.2270068
o5
v0
n3
o5
v1
n2.11
o44
o0
o2
n-1.24
o5
o0
v0
n-0.855
n2
o2
n-0.98
o5
o0
v1
n-0.59
n2
o54
3
o2
n-1.96
v1
o3
n2.11
v1
n1.1563999999999999
o2
o2
o2
o2
n-0.805213
o5
v0
n3
v1
o44
o0
o2
n-9.34
o5
o0
v0
n-0.79
n2
o2
n-171.0
o5
o0
v1
n-1.2
n2
o54
3
o2
n-342.0
v1
o3
n1.0
v1
n410.4
o2
o2
o2
o2
n0.00994318
o5
v0
n2
o5
v1
n1.5
o44
o0
o2
n-5.78
o5
o0
v0
n-1.3
n2
o2
n-47.4
o5
o0
v1
n-1.33
n2
o54
3
o2
n-94.8
v1
o3
n1.5
v1
n126.084
o2
o2
o2
o2
n-0.008798793
v0
v1
o44
o0
o2
n-3.08
o5
o0
v0
n-0.71
n2
o2
n-15.4
o5
o0
v1
n-0.64
n2
o54
3
o2
n-30.8
v1
o3
n1.0
v1
n19.712
O9 0
o54
15
o2
o2
n-0.314006384517
v0
o5
v1
n-1.777
o2
o2
n0.4693762822
v0
o5
v1
n-1.245
o2
o2
n-0.15871763904
o5
v0
n2
o5
v1
n-0.76
o2
o2
n-0.04132204384
o5
v0
n3
o5
v1
n-1.56
o2
o2
n-2.647602
v0
o44
o16
o5
v0
n2
o2
o2
o2
n-1.7673886560000005
o5
v0
n3
o5
v1
n0.20000000000000018
o44
o16
o5
v0
n2
o2
o2
o2
n0.19374523199999993
o5
v0
n2
o5
v1
n-0.8
o44
o2
n-1
v0
o2
o2
o2
n-0.580517175
o5
v0
n2
o5
v1
n-0.5
o44
o16
o5
v0
n2
o2
o2
o2
n0.0016594613999999998
o5
v0
n7
o5
v1
n-1.1
o44
o2
n-1
v0
o2
o2
o2
o2
n1.407916
v0
o5
v1
n1.33
o44
o0
o16
o5
o0
v0
n-0.728
n2
o2
n-1.21
o5
o0
v1
n-0.943
n2
o54
3
o5
o54
3
o2
n-2.42
v1
o3
n1.33
v1
n2.28206
n2
o16
o3
n1.33
o5
v1
n2
n-2.42
o2
o2
o2
o2
n-0.4237082
v0
o5
v1
n1.75
o44
o0
o2
n-1.61
o5
o0
v0
n-0.87
n2
o2
n-1.37
o5
o0
v1
n-0.642
n2
o54
3
o5
o54
3
o2
n-2.74
v1
o3
n1.75
v1
n1.7590800000000002
n2
o16
o3
n1.75
o5
v1
n2
n-2.74
o2
o2
o2
o2
n-0.2270068
o5
v0
n3
o5
v1
n2.11
o44
o0
o2
n-1.24
o5
o0
v0
n-0.855
n2
o2
n-0.98
o5
o0
v1
n-0.59
n2
o54
3
o5
o54
3
o2
n-1.96
v1
o3
n2.11
v1
n1.1563999999999999
n2
o16
o3
n2.11
o5
v1
n2
n-1.96
o2
o2
o2
o2
n-0.805213
o5
v0
n3
v1
o44
o0
o2
n-9.34
o5
o0
v0
n-0.79
n2
o2
n-171.0
o5
o0
v1
n-1.2
n2
o54
3
o5
o54
3
o2
n-342.0
v1
o3
n1.0
v1
n410.4
n2
o16
o3
n1.0
o5
v1
n2
n-342.0
o2
o2
o2
o2
n0.00994318
o5
v0
n2
o5
v1
n1.5
o44
o0
o2
n-5.78
o5
o0
v0
n-1.3
n2
o2
n-47.4
o5
o0
v1
n-1.33
n2
o54
3
o5
o54
3
o2
n-94.8
v1
o3
n1.5
v1
n126.084
n2
o16
o3
n1.5
o5
v1
n2
n-94.8
o2
o2
o2
o2
n-0.008798793
v0
v1
o44
o0
o2
n-3.08
o5
o0
v0
n-0.71
n2
o2
n-15.4
o5
o0
v1
n-0.64
n2
o54
3
o5
o54
3
o2
n-30.8
v1
o3
n1.0
v1
n19.712
n2
o16
o3
n1.0
o5
v1
n2
n-30.8
O10 0
o54
16
o2
n0.15931188
o5
v0
n3
o2
n0.404126621
o5
v1
n-0.777
o2
n-1.91582156
o5
v1
n-0.245
o2
o2
n-1.322646992
v0
o5
v1
n0.24
o2
o2
n0.221368092
o5
v0
n2
o5
v1
n-0.56
o2
o2
o2
n-2.647602
v1
o0
o2
n-2
o5
v0
n2
n1
o44
o16
o5
v0
n2
o2
o2
o2
o2
n-1.4728238800000002
o5
v0
n2
o5
v1
n1.2000000000000002
o0
o2
n-2
o5
v0
n2
n3
o44
o16
o5
v0
n2
o2
o2
o2
o2
n0.9687261599999999
v0
o5
v1
n0.19999999999999996
o0
o2
n-1
v0
n2
o44
o2
n-1
v0
o2
o2
o2
o2
n-1.16103435
v0
o5
v1
n0.5
o0
o2
n-2
o5
v0
n2
n2
o44
o16
o5
v0
n2
o2
o2
o2
o2
n-0.016594614
o5
v0
n6
o5
v1
n-0.09999999999999998
o0
o2
n-1
v0
n7
o44
o2
n-1
v0
o2
o2
o2
o2
o2
n1.407916
v0
o5
v1
n1.33
o44
o0
o16
o5
o0
v0
n-0.728
n2
o2
n-1.21
o5
o0
v1
n-0.943
n2
o54
3
o2
n-2.0
v0
o3
n1
v0
n1.456
o54
3
o2
n-2.42
v1
o3
n1.33
v1
n2.28206
o2
o2
o2
o2
o2
n-0.4237082
v0
o5
v1
n1.75
o44
o0
o2
n-1.61
o5
o0
v0
n-0.87
n2
o2
n-1.37
o5
o0
v1
n-0.642
n2
o54
3
o2
n-3.22
v0
o3
n1
v0
n2.8014
o54
3
o2
n-2.74
v1
o3
n1.75
v1
n1.7590800000000002
o2
o2
o2
o2
o2
n-0.2270068
o5
v0
n3
o5
v1
n2.11
o44
o0
o2
n-1.24
o5
o0
v0
n-0.855
n2
o2
n-0.98
o5
o0
v1
n-0.59
n2
o54
3
o2
n-2.48
v0
o3
n3
v0
n2.1204
o54
3
o2
n-1.96
v1
o3
n2.11
v1
n1.1563999999999999
o2
o2
o2
o2
o2
n-0.805213
o5
v0
n3
v1
o44
o0
o2
n-9.34
o5
o0
v0
n-0.79
n2
o2
n-171.0
o5
o0
v1
n-1.2
n2
o54
3
o2
n-18.68
v0
o3
n3
v0
n14.757200000000001
o54
3
o2
n-342.0
v1
o3
n1.0
v1
n410.4
o2
o2
o2
o2
o2
n0.00994318
o5
v0
n2
o5
v1
n1.5
o44
o0
o2
n-5.78
o5
o0
v0
n-1.3
n2
o2
n-47.4
o5
o0
v1
n-1.33
n2
o54
3
o2
n-11.56
v0
o3
n2
v0
n15.028
o54
3
o2
n-94.8
v1
o3
n1.5
v1
n126.084
o2
o2
o2
o2
o2
n-0.008798793
v0
v1
o44
o0
o2
n-3.08
o5
o0
v0
n-0.71
n2
o2
n-15.4
o5
o0
v1
n-0.64
n2
o54
3
o2
n-6.16
v0
o3
n1
v0
n4.3736
o54
3
o2
n-30.8
v1
o3
n1.0
v1
n19.712
O11 0
o0
o54
4
o2
n1.1913
o5
o0
o16
o3
n1
v1
n1
n0.27
o2
n2.2456
o5
o0
o16
o3
n1
v1
n1
n0.7
o2
n-1.7747
o5
o0
o16
o3
n1
v1
n1
n1.25
o2
n1.3096
o5
o0
o16
o3
n1
v1
n1
n1.9
n1.0
O12 0
o44
o54
5
o2
n-1.0308
o5
o0
o16
o3
n1
v1
n1
n0.24
o2
n-5.0422
o5
o0
o16
o3
n1
v1
n1
n0.72
o2
n-11.5
o5
o0
o16
o3
n1
v1
n1
n2.1
o2
n-37.499
o5
o0
o16
o3
n1
v1
n1
n4.8
o2
n-77.945
o5
o0
o16
o3
n1
v1
n1
n9.5
O13 0
n0.0
x2
0 1.0
1 1.0
r
b
3
3
k1
0
G0 2
0 0
1 8.7912297624
G1 1
0 0
G2 1
0 0
G3 1
1 0
G4 1
1 0
G5 2
0 0
1 0
G6 2
0 0
1 0
G7 2
0 0
1 0
G8 2
0 0
1 0
G9 2
0 0
1 0
G10 2
0 0
1 0
G11 1
1 0
G12 1
1 0
